# Plate Description Version 3
# HALCON Version 22.11 --  Mon Jul  3 16:00:22 2023
# Description of the standard calibration plate
# used for the camera calibration in HALCON
# (generated by create_caltab)
#
#

# 11 rows x 13 columns
# Width, height of calibration plate [meter]: 0.45, 0.334808
# Distance between mark centers [meter]: 0.03

# Number of marks in y-dimension (rows)
r 11

# Number of marks in x-dimension (columns)
c 13

# offset of coordinate system in z-dimension [meter] (optional):
z 0

# rim of the calibration plate (min x, max y, max x, min y) [meter]:
o -0.2175 0.167403810567666 0.2325 -0.167403810567666

# polarity of the marks (light or dark):
p light

# number of finder pattern marks:
f 5

# position of the finder patterns (central mark):  x y [index]
6 5
2 2
10 2
2 8
10 8

# calibration marks:  x y radius [meter]

# calibration marks at y = -0.129904 m
-0.165 -0.129903810567666 0.0075
-0.135 -0.129903810567666 0.0075
-0.105 -0.129903810567666 0.0075
-0.075 -0.129903810567666 0.0075
-0.045 -0.129903810567666 0.0075
-0.015 -0.129903810567666 0.0075
0.015 -0.129903810567666 0.0075
0.045 -0.129903810567666 0.0075
0.075 -0.129903810567666 0.0075
0.105 -0.129903810567666 0.0075
0.135 -0.129903810567666 0.0075
0.165 -0.129903810567666 0.0075
0.195 -0.129903810567666 0.0075

# calibration marks at y = -0.103923 m
-0.18 -0.103923048454133 0.0075
-0.15 -0.103923048454133 0.0075
-0.12 -0.103923048454133 0.0075
-0.09 -0.103923048454133 0.0075
-0.06 -0.103923048454133 0.0075
-0.03 -0.103923048454133 0.0075
0 -0.103923048454133 0.0075
0.03 -0.103923048454133 0.0075
0.06 -0.103923048454133 0.0075
0.09 -0.103923048454133 0.0075
0.12 -0.103923048454133 0.0075
0.15 -0.103923048454133 0.0075
0.18 -0.103923048454133 0.0075

# calibration marks at y = -0.0779423 m
-0.165 -0.0779422863405995 0.0075
-0.135 -0.0779422863405995 0.0075
-0.105 -0.0779422863405995 0.0075
-0.075 -0.0779422863405995 0.0075
-0.045 -0.0779422863405995 0.0075
-0.015 -0.0779422863405995 0.0075
0.015 -0.0779422863405995 0.0075
0.045 -0.0779422863405995 0.0075
0.075 -0.0779422863405995 0.0075
0.105 -0.0779422863405995 0.0075
0.135 -0.0779422863405995 0.0075
0.165 -0.0779422863405995 0.0075
0.195 -0.0779422863405995 0.0075

# calibration marks at y = -0.0519615 m
-0.18 -0.0519615242270663 0.0075
-0.15 -0.0519615242270663 0.0075
-0.12 -0.0519615242270663 0.0075
-0.09 -0.0519615242270663 0.0075
-0.06 -0.0519615242270663 0.0075
-0.03 -0.0519615242270663 0.0075
0 -0.0519615242270663 0.0075
0.03 -0.0519615242270663 0.0075
0.06 -0.0519615242270663 0.0075
0.09 -0.0519615242270663 0.0075
0.12 -0.0519615242270663 0.0075
0.15 -0.0519615242270663 0.0075
0.18 -0.0519615242270663 0.0075

# calibration marks at y = -0.0259808 m
-0.165 -0.0259807621135332 0.0075
-0.135 -0.0259807621135332 0.0075
-0.105 -0.0259807621135332 0.0075
-0.075 -0.0259807621135332 0.0075
-0.045 -0.0259807621135332 0.0075
-0.015 -0.0259807621135332 0.0075
0.015 -0.0259807621135332 0.0075
0.045 -0.0259807621135332 0.0075
0.075 -0.0259807621135332 0.0075
0.105 -0.0259807621135332 0.0075
0.135 -0.0259807621135332 0.0075
0.165 -0.0259807621135332 0.0075
0.195 -0.0259807621135332 0.0075

# calibration marks at y = 0 m
-0.18 0 0.0075
-0.15 0 0.0075
-0.12 0 0.0075
-0.09 0 0.0075
-0.06 0 0.0075
-0.03 0 0.0075
0 0 0.0075
0.03 0 0.0075
0.06 0 0.0075
0.09 0 0.0075
0.12 0 0.0075
0.15 0 0.0075
0.18 0 0.0075

# calibration marks at y = 0.0259808 m
-0.165 0.0259807621135332 0.0075
-0.135 0.0259807621135332 0.0075
-0.105 0.0259807621135332 0.0075
-0.075 0.0259807621135332 0.0075
-0.045 0.0259807621135332 0.0075
-0.015 0.0259807621135332 0.0075
0.015 0.0259807621135332 0.0075
0.045 0.0259807621135332 0.0075
0.075 0.0259807621135332 0.0075
0.105 0.0259807621135332 0.0075
0.135 0.0259807621135332 0.0075
0.165 0.0259807621135332 0.0075
0.195 0.0259807621135332 0.0075

# calibration marks at y = 0.0519615 m
-0.18 0.0519615242270663 0.0075
-0.15 0.0519615242270663 0.0075
-0.12 0.0519615242270663 0.0075
-0.09 0.0519615242270663 0.0075
-0.06 0.0519615242270663 0.0075
-0.03 0.0519615242270663 0.0075
0 0.0519615242270663 0.0075
0.03 0.0519615242270663 0.0075
0.06 0.0519615242270663 0.0075
0.09 0.0519615242270663 0.0075
0.12 0.0519615242270663 0.0075
0.15 0.0519615242270663 0.0075
0.18 0.0519615242270663 0.0075

# calibration marks at y = 0.0779423 m
-0.165 0.0779422863405995 0.0075
-0.135 0.0779422863405995 0.0075
-0.105 0.0779422863405995 0.0075
-0.075 0.0779422863405995 0.0075
-0.045 0.0779422863405995 0.0075
-0.015 0.0779422863405995 0.0075
0.015 0.0779422863405995 0.0075
0.045 0.0779422863405995 0.0075
0.075 0.0779422863405995 0.0075
0.105 0.0779422863405995 0.0075
0.135 0.0779422863405995 0.0075
0.165 0.0779422863405995 0.0075
0.195 0.0779422863405995 0.0075

# calibration marks at y = 0.103923 m
-0.18 0.103923048454133 0.0075
-0.15 0.103923048454133 0.0075
-0.12 0.103923048454133 0.0075
-0.09 0.103923048454133 0.0075
-0.06 0.103923048454133 0.0075
-0.03 0.103923048454133 0.0075
0 0.103923048454133 0.0075
0.03 0.103923048454133 0.0075
0.06 0.103923048454133 0.0075
0.09 0.103923048454133 0.0075
0.12 0.103923048454133 0.0075
0.15 0.103923048454133 0.0075
0.18 0.103923048454133 0.0075

# calibration marks at y = 0.129904 m
-0.165 0.129903810567666 0.0075
-0.135 0.129903810567666 0.0075
-0.105 0.129903810567666 0.0075
-0.075 0.129903810567666 0.0075
-0.045 0.129903810567666 0.0075
-0.015 0.129903810567666 0.0075
0.015 0.129903810567666 0.0075
0.045 0.129903810567666 0.0075
0.075 0.129903810567666 0.0075
0.105 0.129903810567666 0.0075
0.135 0.129903810567666 0.0075
0.165 0.129903810567666 0.0075
0.195 0.129903810567666 0.0075
